(set-logic QF_UF)
(declare-fun A0 () Bool)
(declare-fun A1 () Bool)
(declare-fun A2 () Bool)
(declare-fun A3 () Bool)
(declare-fun A4 () Bool)
(declare-fun A5 () Bool)
(declare-fun A6 () Bool)
(declare-fun A7 () Bool)
(declare-fun A8 () Bool)
(declare-fun A9 () Bool)
(declare-fun A10 () Bool)
(declare-fun A11 () Bool)
(declare-fun A12 () Bool)
(declare-fun A13 () Bool)
(declare-fun A14 () Bool)
(declare-fun A15 () Bool)
(declare-fun A16 () Bool)
(declare-fun A17 () Bool)
(declare-fun A18 () Bool)
(declare-fun A19 () Bool)
(declare-fun A20 () Bool)
(declare-fun A21 () Bool)
(declare-fun A22 () Bool)
(declare-fun A23 () Bool)
(declare-fun A24 () Bool)
(assert (let ((.def_0 (not A17))) (let ((.def_1 (not A10))) (let ((.def_2 (and .def_1 .def_0))) (let ((.def_3 (not .def_2))) (let ((.def_4 (not A0))) (let ((.def_5 (and A21 .def_4))) (let ((.def_6 (and .def_5 .def_3))) (let ((.def_7 (not A4))) (let ((.def_8 (not A15))) (let ((.def_9 (= .def_8 .def_7))) (let ((.def_10 (not .def_9))) (let ((.def_11 (and .def_4 A4))) (let ((.def_12 (and .def_11 .def_10))) (let ((.def_13 (not .def_12))) (let ((.def_14 (or .def_13 .def_6))) (let ((.def_15 (not A8))) (let ((.def_16 (or A6 .def_15))) (let ((.def_17 (or A3 .def_4))) (let ((.def_18 (and .def_17 .def_16))) (let ((.def_19 (not A3))) (let ((.def_20 (or A22 .def_19))) (let ((.def_21 (not .def_20))) (let ((.def_22 (and A18 A24))) (let ((.def_23 (or .def_22 .def_21))) (let ((.def_24 (and .def_23 .def_18))) (let ((.def_25 (and .def_24 .def_14))) (let ((.def_26 (not .def_25))) (let ((.def_27 (not A12))) (let ((.def_28 (= .def_27 A22))) (let ((.def_29 (not .def_28))) (let ((.def_30 (not A11))) (let ((.def_31 (or A8 .def_30))) (let ((.def_32 (and .def_31 .def_29))) (let ((.def_33 (not .def_32))) (let ((.def_34 (or A1 A10))) (let ((.def_35 (and A13 A6))) (let ((.def_36 (and .def_35 .def_34))) (let ((.def_37 (not .def_36))) (let ((.def_38 (or .def_37 .def_33))) (let ((.def_39 (not .def_38))) (let ((.def_40 (or .def_4 A21))) (let ((.def_41 (not .def_40))) (let ((.def_42 (not A23))) (let ((.def_43 (or .def_42 .def_19))) (let ((.def_44 (not .def_43))) (let ((.def_45 (and .def_44 .def_41))) (let ((.def_46 (not .def_45))) (let ((.def_47 (not .def_34))) (let ((.def_48 (not A1))) (let ((.def_49 (and A19 .def_48))) (let ((.def_50 (or .def_49 .def_47))) (let ((.def_51 (not .def_50))) (let ((.def_52 (or .def_51 .def_46))) (let ((.def_53 (not .def_52))) (let ((.def_54 (and .def_53 .def_39))) (let ((.def_55 (and .def_54 .def_26))) (let ((.def_56 (not A22))) (let ((.def_57 (and .def_56 A23))) (let ((.def_58 (not A9))) (let ((.def_59 (and .def_58 A15))) (let ((.def_60 (and .def_59 .def_57))) (let ((.def_61 (not .def_60))) (let ((.def_62 (and .def_27 A15))) (let ((.def_63 (not .def_62))) (let ((.def_64 (or A23 .def_1))) (let ((.def_65 (not .def_64))) (let ((.def_66 (or .def_65 .def_63))) (let ((.def_67 (not .def_66))) (let ((.def_68 (or .def_67 .def_61))) (let ((.def_69 (not .def_68))) (let ((.def_70 (not A7))) (let ((.def_71 (or .def_70 .def_1))) (let ((.def_72 (not .def_71))) (let ((.def_73 (not A19))) (let ((.def_74 (or .def_73 .def_70))) (let ((.def_75 (not .def_74))) (let ((.def_76 (or .def_75 .def_72))) (let ((.def_77 (= A13 .def_0))) (let ((.def_78 (or A7 A24))) (let ((.def_79 (or .def_78 .def_77))) (let ((.def_80 (and .def_79 .def_76))) (let ((.def_81 (or .def_80 .def_69))) (let ((.def_82 (or A6 .def_73))) (let ((.def_83 (or A12 .def_1))) (let ((.def_84 (and .def_83 .def_82))) (let ((.def_85 (and A14 A13))) (let ((.def_86 (not .def_85))) (let ((.def_87 (and A9 A19))) (let ((.def_88 (not .def_87))) (let ((.def_89 (or .def_88 .def_86))) (let ((.def_90 (and .def_89 .def_84))) (let ((.def_91 (and .def_42 .def_58))) (let ((.def_92 (not .def_91))) (let ((.def_93 (not A5))) (let ((.def_94 (and .def_30 .def_93))) (let ((.def_95 (and .def_94 .def_92))) (let ((.def_96 (not .def_95))) (let ((.def_97 (and A22 .def_48))) (let ((.def_98 (not .def_97))) (let ((.def_99 (not A13))) (let ((.def_100 (not A21))) (let ((.def_101 (and .def_100 .def_99))) (let ((.def_102 (and .def_101 .def_98))) (let ((.def_103 (not .def_102))) (let ((.def_104 (or .def_103 .def_96))) (let ((.def_105 (not .def_104))) (let ((.def_106 (and .def_105 .def_90))) (let ((.def_107 (or .def_106 .def_81))) (let ((.def_108 (or .def_107 .def_55))) (let ((.def_109 (or .def_58 A6))) (let ((.def_110 (and A19 .def_19))) (let ((.def_111 (or .def_110 .def_109))) (let ((.def_112 (not .def_111))) (let ((.def_113 (and A8 A23))) (let ((.def_114 (not A14))) (let ((.def_115 (or .def_42 .def_114))) (let ((.def_116 (and .def_115 .def_113))) (let ((.def_117 (or .def_116 .def_112))) (let ((.def_118 (or .def_100 A14))) (let ((.def_119 (not .def_118))) (let ((.def_120 (and .def_19 A24))) (let ((.def_121 (not .def_120))) (let ((.def_122 (and .def_121 .def_119))) (let ((.def_123 (not .def_122))) (let ((.def_124 (and .def_8 .def_48))) (let ((.def_125 (not .def_124))) (let ((.def_126 (and A17 A24))) (let ((.def_127 (not .def_126))) (let ((.def_128 (= .def_127 .def_125))) (let ((.def_129 (or .def_128 .def_123))) (let ((.def_130 (or .def_129 .def_117))) (let ((.def_131 (and .def_0 A10))) (let ((.def_132 (not .def_131))) (let ((.def_133 (not A6))) (let ((.def_134 (or .def_133 .def_1))) (let ((.def_135 (or .def_134 .def_132))) (let ((.def_136 (not .def_135))) (let ((.def_137 (and A2 .def_7))) (let ((.def_138 (= A21 .def_58))) (let ((.def_139 (and .def_138 .def_137))) (let ((.def_140 (or .def_139 .def_136))) (let ((.def_141 (not A16))) (let ((.def_142 (and .def_141 .def_56))) (let ((.def_143 (or A16 .def_7))) (let ((.def_144 (not .def_143))) (let ((.def_145 (and .def_144 .def_142))) (let ((.def_146 (not A18))) (let ((.def_147 (or .def_133 .def_146))) (let ((.def_148 (not .def_147))) (let ((.def_149 (and A8 A10))) (let ((.def_150 (not .def_149))) (let ((.def_151 (and .def_150 .def_148))) (let ((.def_152 (not .def_151))) (let ((.def_153 (and .def_152 .def_145))) (let ((.def_154 (not .def_153))) (let ((.def_155 (and .def_154 .def_140))) (let ((.def_156 (or .def_155 .def_130))) (let ((.def_157 (not .def_156))) (let ((.def_158 (and A23 A21))) (let ((.def_159 (not .def_158))) (let ((.def_160 (or .def_73 A1))) (let ((.def_161 (not .def_160))) (let ((.def_162 (or .def_161 .def_159))) (let ((.def_163 (not .def_162))) (let ((.def_164 (and A9 .def_73))) (let ((.def_165 (not .def_164))) (let ((.def_166 (= A17 A11))) (let ((.def_167 (and .def_166 .def_165))) (let ((.def_168 (= .def_167 .def_163))) (let ((.def_169 (and A23 A17))) (let ((.def_170 (not A20))) (let ((.def_171 (or .def_170 A7))) (let ((.def_172 (and .def_171 .def_169))) (let ((.def_173 (or A3 .def_146))) (let ((.def_174 (and A16 A15))) (let ((.def_175 (not .def_174))) (let ((.def_176 (and .def_175 .def_173))) (let ((.def_177 (not .def_176))) (let ((.def_178 (or .def_177 .def_172))) (let ((.def_179 (or .def_178 .def_168))) (let ((.def_180 (or A24 .def_73))) (let ((.def_181 (not .def_180))) (let ((.def_182 (or A0 .def_30))) (let ((.def_183 (and .def_182 .def_181))) (let ((.def_184 (and .def_73 A19))) (let ((.def_185 (or A19 .def_170))) (let ((.def_186 (not .def_185))) (let ((.def_187 (or .def_186 .def_184))) (let ((.def_188 (and .def_187 .def_183))) (let ((.def_189 (and .def_133 .def_7))) (let ((.def_190 (and .def_170 .def_19))) (let ((.def_191 (not .def_190))) (let ((.def_192 (and .def_191 .def_189))) (let ((.def_193 (and A12 .def_73))) (let ((.def_194 (and A9 .def_7))) (let ((.def_195 (not .def_194))) (let ((.def_196 (or .def_195 .def_193))) (let ((.def_197 (or .def_196 .def_192))) (let ((.def_198 (not .def_197))) (let ((.def_199 (or .def_198 .def_188))) (let ((.def_200 (not .def_199))) (let ((.def_201 (or .def_200 .def_179))) (let ((.def_202 (and .def_201 .def_157))) (let ((.def_203 (= .def_202 .def_108))) (let ((.def_204 (not .def_203))) (let ((.def_205 (and A1 .def_58))) (let ((.def_206 (= A17 A1))) (let ((.def_207 (and .def_206 .def_205))) (let ((.def_208 (not .def_207))) (let ((.def_209 (not A24))) (let ((.def_210 (and .def_56 .def_209))) (let ((.def_211 (not .def_210))) (let ((.def_212 (or A17 .def_73))) (let ((.def_213 (not .def_212))) (let ((.def_214 (and .def_213 .def_211))) (let ((.def_215 (not .def_214))) (let ((.def_216 (or .def_215 .def_208))) (let ((.def_217 (or .def_209 A10))) (let ((.def_218 (not .def_217))) (let ((.def_219 (or .def_30 .def_42))) (let ((.def_220 (not .def_219))) (let ((.def_221 (and .def_220 .def_218))) (let ((.def_222 (or .def_93 .def_58))) (let ((.def_223 (not .def_222))) (let ((.def_224 (or .def_42 A17))) (let ((.def_225 (not .def_224))) (let ((.def_226 (or .def_225 .def_223))) (let ((.def_227 (or .def_226 .def_221))) (let ((.def_228 (not .def_227))) (let ((.def_229 (or .def_228 .def_216))) (let ((.def_230 (not .def_229))) (let ((.def_231 (or A14 A21))) (let ((.def_232 (or .def_133 A7))) (let ((.def_233 (not .def_232))) (let ((.def_234 (or .def_233 .def_231))) (let ((.def_235 (or A23 .def_170))) (let ((.def_236 (not .def_235))) (let ((.def_237 (or .def_99 .def_15))) (let ((.def_238 (and .def_237 .def_236))) (let ((.def_239 (and .def_238 .def_234))) (let ((.def_240 (or A3 A6))) (let ((.def_241 (not .def_240))) (let ((.def_242 (or .def_100 A18))) (let ((.def_243 (not .def_242))) (let ((.def_244 (or .def_243 .def_241))) (let ((.def_245 (= .def_0 A2))) (let ((.def_246 (not .def_245))) (let ((.def_247 (and A11 A11))) (let ((.def_248 (or .def_247 .def_246))) (let ((.def_249 (and .def_248 .def_244))) (let ((.def_250 (or .def_249 .def_239))) (let ((.def_251 (and .def_250 .def_230))) (let ((.def_252 (= .def_7 .def_170))) (let ((.def_253 (not .def_252))) (let ((.def_254 (and A15 .def_93))) (let ((.def_255 (or .def_254 .def_253))) (let ((.def_256 (not .def_255))) (let ((.def_257 (or .def_99 .def_19))) (let ((.def_258 (and .def_0 .def_99))) (let ((.def_259 (not .def_258))) (let ((.def_260 (or .def_259 .def_257))) (let ((.def_261 (and .def_260 .def_256))) (let ((.def_262 (and .def_0 .def_19))) (let ((.def_263 (not .def_262))) (let ((.def_264 (or .def_27 .def_209))) (let ((.def_265 (not .def_264))) (let ((.def_266 (and .def_265 .def_263))) (let ((.def_267 (or .def_42 A16))) (let ((.def_268 (not .def_267))) (let ((.def_269 (and A10 A3))) (let ((.def_270 (or .def_269 .def_268))) (let ((.def_271 (and .def_270 .def_266))) (let ((.def_272 (or .def_271 .def_261))) (let ((.def_273 (= .def_114 .def_99))) (let ((.def_274 (or .def_114 .def_4))) (let ((.def_275 (not .def_274))) (let ((.def_276 (= .def_275 .def_273))) (let ((.def_277 (not .def_276))) (let ((.def_278 (and .def_58 A16))) (let ((.def_279 (and A21 .def_73))) (let ((.def_280 (or .def_279 .def_278))) (let ((.def_281 (not .def_280))) (let ((.def_282 (or .def_281 .def_277))) (let ((.def_283 (or .def_48 A17))) (let ((.def_284 (or .def_170 A18))) (let ((.def_285 (or .def_284 .def_283))) (let ((.def_286 (and A12 .def_70))) (let ((.def_287 (not .def_286))) (let ((.def_288 (or A0 A6))) (let ((.def_289 (and .def_288 .def_287))) (let ((.def_290 (not .def_289))) (let ((.def_291 (and .def_290 .def_285))) (let ((.def_292 (not .def_291))) (let ((.def_293 (or .def_292 .def_282))) (let ((.def_294 (not .def_293))) (let ((.def_295 (and .def_294 .def_272))) (let ((.def_296 (or .def_295 .def_251))) (let ((.def_297 (not .def_296))) (let ((.def_298 (or .def_8 A8))) (let ((.def_299 (not A2))) (let ((.def_300 (and .def_299 .def_133))) (let ((.def_301 (not .def_300))) (let ((.def_302 (and .def_301 .def_298))) (let ((.def_303 (not .def_302))) (let ((.def_304 (or .def_209 .def_7))) (let ((.def_305 (not .def_304))) (let ((.def_306 (and .def_0 .def_1))) (let ((.def_307 (not .def_306))) (let ((.def_308 (or .def_307 .def_305))) (let ((.def_309 (or .def_308 .def_303))) (let ((.def_310 (or A18 .def_8))) (let ((.def_311 (not .def_310))) (let ((.def_312 (or A19 .def_4))) (let ((.def_313 (or .def_312 .def_311))) (let ((.def_314 (not .def_313))) (let ((.def_315 (= A17 .def_146))) (let ((.def_316 (not .def_315))) (let ((.def_317 (and .def_93 .def_42))) (let ((.def_318 (and .def_317 .def_316))) (let ((.def_319 (not .def_318))) (let ((.def_320 (and .def_319 .def_314))) (let ((.def_321 (not .def_320))) (let ((.def_322 (and .def_321 .def_309))) (let ((.def_323 (not .def_322))) (let ((.def_324 (or A24 A21))) (let ((.def_325 (not .def_324))) (let ((.def_326 (or .def_73 A16))) (let ((.def_327 (or .def_326 .def_325))) (let ((.def_328 (not .def_327))) (let ((.def_329 (or A12 A3))) (let ((.def_330 (not .def_329))) (let ((.def_331 (and A4 A3))) (let ((.def_332 (and .def_331 .def_330))) (let ((.def_333 (and .def_332 .def_328))) (let ((.def_334 (not .def_333))) (let ((.def_335 (and A8 A3))) (let ((.def_336 (not .def_335))) (let ((.def_337 (and .def_99 .def_8))) (let ((.def_338 (and .def_337 .def_336))) (let ((.def_339 (and .def_4 .def_299))) (let ((.def_340 (not .def_339))) (let ((.def_341 (or A21 .def_4))) (let ((.def_342 (not .def_341))) (let ((.def_343 (and .def_342 .def_340))) (let ((.def_344 (or .def_343 .def_338))) (let ((.def_345 (not .def_344))) (let ((.def_346 (or .def_345 .def_334))) (let ((.def_347 (not .def_346))) (let ((.def_348 (or .def_347 .def_323))) (let ((.def_349 (not .def_348))) (let ((.def_350 (or .def_0 A9))) (let ((.def_351 (and .def_8 A13))) (let ((.def_352 (and .def_351 .def_350))) (let ((.def_353 (not .def_352))) (let ((.def_354 (and .def_56 .def_133))) (let ((.def_355 (and A17 A11))) (let ((.def_356 (not .def_355))) (let ((.def_357 (and .def_356 .def_354))) (let ((.def_358 (not .def_357))) (let ((.def_359 (or .def_358 .def_353))) (let ((.def_360 (not .def_359))) (let ((.def_361 (and .def_15 .def_93))) (let ((.def_362 (not .def_361))) (let ((.def_363 (and .def_141 A2))) (let ((.def_364 (or .def_363 .def_362))) (let ((.def_365 (or .def_48 A7))) (let ((.def_366 (not .def_365))) (let ((.def_367 (and A4 A17))) (let ((.def_368 (not .def_367))) (let ((.def_369 (and .def_368 .def_366))) (let ((.def_370 (not .def_369))) (let ((.def_371 (and .def_370 .def_364))) (let ((.def_372 (not .def_371))) (let ((.def_373 (or .def_372 .def_360))) (let ((.def_374 (not .def_373))) (let ((.def_375 (or A16 A10))) (let ((.def_376 (not .def_375))) (let ((.def_377 (or .def_0 .def_114))) (let ((.def_378 (not .def_377))) (let ((.def_379 (and .def_378 .def_376))) (let ((.def_380 (or A10 .def_27))) (let ((.def_381 (not .def_380))) (let ((.def_382 (or .def_381 .def_142))) (let ((.def_383 (or .def_382 .def_379))) (let ((.def_384 (or A10 A12))) (let ((.def_385 (and .def_133 .def_133))) (let ((.def_386 (or .def_385 .def_384))) (let ((.def_387 (not .def_386))) (let ((.def_388 (and .def_170 A13))) (let ((.def_389 (and A8 .def_48))) (let ((.def_390 (= .def_389 .def_388))) (let ((.def_391 (not .def_390))) (let ((.def_392 (or .def_391 .def_387))) (let ((.def_393 (not .def_392))) (let ((.def_394 (and .def_393 .def_383))) (let ((.def_395 (not .def_394))) (let ((.def_396 (and .def_395 .def_374))) (let ((.def_397 (and .def_396 .def_349))) (let ((.def_398 (or .def_397 .def_297))) (let ((.def_399 (or .def_398 .def_204))) (let ((.def_400 (not .def_399))) .def_400))))))))))))))))))))))))))))))))))))))))))))))))))))))))))))))))))))))))))))))))))))))))))))))))))))))))))))))))))))))))))))))))))))))))))))))))))))))))))))))))))))))))))))))))))))))))))))))))))))))))))))))))))))))))))))))))))))))))))))))))))))))))))))))))))))))))))))))))))))))))))))))))))))))))))))))))))))))))))))))))))))))))))))))))))))))))))))))))))))))))))))))))))))))))))))))))))))))))))))))))))
(check-sat)
